\ LP format - for model browsing. Use MPS format to capture full model detail.
Maximize
  10 x_1 + 2 x_2 + x_3 + 10 x_4 + 6 x_5 + 7 x_6 + 7 x_7 + 9 x_8 + 6 x_9
   + 8 x_10 + 9 x_11 + 2 x_12 + 8 x_13 + 7 x_14 + 7 x_15
Subject To
 C_1: 6 x_1 + 6 x_2 + x_3 + 4 x_4 + 5 x_5 + 9 x_6 + 9 x_7 + 2 x_8 + 4 x_9
   + x_10 + 6 x_11 + 2 x_12 + 7 x_13 + 8 x_14 + 9 x_15 <= 39
 C_2: 4 x_1 + 9 x_2 + 2 x_3 + 7 x_4 + 8 x_5 + 7 x_6 + 3 x_7 + 7 x_8 + 7 x_9
   + 10 x_10 + 6 x_11 + 5 x_12 + 2 x_13 + 3 x_14 + x_15 <= 40
 C_3: 8 x_1 + 9 x_2 + 8 x_3 + x_4 + 4 x_5 + 2 x_6 + 9 x_7 + 5 x_8 + 5 x_9
   + 4 x_10 + 5 x_11 + 3 x_12 + 5 x_13 + 3 x_14 + 10 x_15 <= 40
 C_4: 6 x_1 + 7 x_2 + 8 x_3 + 7 x_4 + 3 x_5 + 7 x_6 + 6 x_7 + 7 x_8 + 5 x_9
   + 2 x_10 + 9 x_11 + x_12 + 7 x_13 + 10 x_14 + 3 x_15 <= 44
 C_5: 9 x_1 + 9 x_2 + 3 x_3 + 7 x_4 + 9 x_5 + 9 x_6 + 10 x_7 + 10 x_8
   + 3 x_9 + 7 x_10 + 3 x_11 + 9 x_12 + 9 x_13 + 10 x_14 + x_15 <= 54
Bounds
Binaries
 x_1 x_2 x_3 x_4 x_5 x_6 x_7 x_8 x_9 x_10 x_11 x_12 x_13 x_14 x_15
End
